NAME lp_typeD_829
OBJSENSE MAX
ROWS
 N  OBJ
 L  c0      
 G  c1      
 G  c2      
 L  c_key_upper
 G  c_key_lower
 G  _chain_constr_1
 G  _chain_constr_2
 G  _chain_constr_3
 G  _chain_cycle
COLUMNS
    x0        OBJ       1.0561826221873889e+00
    x0        c0        1.4967351451654571e+00
    x0        c1        1.6945959694020547e+00
    x0        c2        6.4135971928707425e-01
    x0        c_key_upper  1.9429171885240639e+00
    x0        c_key_lower  1.9429171885240639e+00
    x1        OBJ       1.0478036418163716e+00
    x1        c0        1.6245436536911233e+00
    x1        c1        1.8028403998215494e+00
    x1        c2        6.2735529509519328e-01
    x1        c_key_upper  1.3974537202072561e+00
    x1        c_key_lower  1.3974537202072561e+00
    x2        OBJ       1.2798351403304502e+00
    x2        c0        8.4854336444719980e-01
    x2        c1        7.1440598424905577e-01
    x2        c2        0.940910018339091
    x2        c_key_upper  1.0348873066293756e+00
    x2        c_key_lower  1.0348873066293756e+00
    x3        OBJ       1.2791459866433121e+00
    x3        c0        0.863724179191214
    x3        c1        7.7065452893191955e-01
    x3        c2        1.8006826043751250e+00
    x3        c_key_upper  1.4031202203390858e+00
    x3        c_key_lower  1.4031202203390858e+00
    x4        OBJ       1.1796164619343643e+00
    x4        c0        8.4794871176352737e-01
    x4        c1        1.9511105420067012e+00
    x4        c2        5.1103394332575713e-01
    x4        c_key_upper  1.7137059186448149e+00
    x4        c_key_lower  1.7137059186448149e+00
    x5        OBJ       6.5922422073242115e-01
    x5        c0        1.38233710769805
    x5        c1        6.3957185594864185e-01
    x5        c2        1.5473566075452905e+00
    x5        c_key_upper  1.9468636773133237e+00
    x5        c_key_lower  1.9468636773133237e+00
    _chain_var_0  _chain_constr_1  -1
    _chain_var_0  _chain_cycle  1
    _chain_var_1  _chain_constr_1  1
    _chain_var_1  _chain_constr_2  -1
    _chain_var_2  _chain_constr_2  1
    _chain_var_2  _chain_constr_3  -1
    _chain_var_3  _chain_constr_3  1
    _chain_var_3  _chain_cycle  -1
RHS
    RHS1      c0        3.8977616999362226e+01
    RHS1      c1        1.0104168955668570e+01
    RHS1      c2        8.0843062468879143e+00
    RHS1      c_key_upper  47.1947401582896
    RHS1      c_key_lower  23.5973700791448
    RHS1      _chain_constr_1  10
    RHS1      _chain_constr_2  10
    RHS1      _chain_constr_3  10
    RHS1      _chain_cycle  10
BOUNDS
 UP BND1      x0        10
 UP BND1      x1        10
 UP BND1      x2        10
 UP BND1      x3        10
 UP BND1      x4        10
 UP BND1      x5        10
 UP BND1      _chain_var_0  100
 UP BND1      _chain_var_1  100
 UP BND1      _chain_var_2  100
 UP BND1      _chain_var_3  100
ENDATA
